49164189088983753635013,15,1,2,014,4,1,2,013,3,1,2,010,14,1,2,05,8,1,2,01,11,1,2,07,6,1,2,014,8,1,2,015,3,1,2,09,1,1,2,08,2,1,2,02,13,1,2,03,1,1,2,04,9,1,2,08,10,1,2,01,14,1,2,013,15,1,2,09,3,1,2,06,14,1,2,08,15,1,2,07,10,1,2,04,8,1,2,04,8,1,2,04,9,1,2,08,2,1,2,02,4,1,2,011,7,1,2,04,1,1,2,012,12,1,2,03,2,1,2,04,1,1,2,07,3,1,2,09,1,1,2,03,2,1,2,02,10,1,2,013,9,1,2,04,14,1,2,05,11,1,2,08,2,1,2,02,1,1,2,09,12,1,2,07,1,1,2,05,15,1,2,02,1,1,2,013,7,1,2,014,4,1,2,015,15,1,2,08,11,1,2,03,13,1,2,015,14,1,2,0